4 5 1.7
2 3 1 1 147 2 4 140 2 130 2 4 150 5 160
1 0
2 0 2
2 3 2 1 214 3 150 2 3 87 2 66 1 5 178
1 1
1 2
2 3 2 1 87 2 62 1 3 180 2 4 190 5 100
1 0
2 0 1
3 3 2 1 87 2 65 1 5 173 2 4 145 3 136
2 0 1
2 0 1
2 1 2
